
  12    4
  10   10   10   10

   0   0   0   0   0   2 2 3 
   4  10  10  10  10   2 5 4 
   3  10  10  10  10   2 5 4 
   4  10  10  10  10   3 8 7 6 
   2  10  10  10  10   2 8 6 
   6  10  10  10  10   2 11 9 
   8  10  10  10  10   2 11 9 
   1  10  10  10  10   1 9 
   2  10  10  10  10   1 10 
  10  10  10  10  10   1 12
   2  10  10  10  10   1 12
   0   0   0   0   0   0 
